\ Model QCP
\ LP format - for model browsing. Use MPS format to capture full model detail.
Minimize
  z + y
Subject To
 Cut_0: z + [ ] >= 780
 Cut_1: z + [ 3.529411764705882 y ^2 ] >= 1150.588235294118
 Cut_2: z + [ 3.529411764705882 y ^2 ] >= 1150.588235294118
 Cut_3: z + [ 3.529411764705882 y ^2 ] >= 1150.588235294118
 Cut_4: z + [ 3.529411764705882 y ^2 ] >= 1150.588235294118
 Cut_5: z + [ 3.529411764705882 y ^2 ] >= 1150.588235294118
 Cut_6: z + [ 3.529411764705882 y ^2 ] >= 1150.588235294118
 Cut_7: z + [ 3.529411764705882 y ^2 ] >= 1150.588235294118
 Cut_8: z + [ 3.529411764705882 y ^2 ] >= 1150.588235294118
 Cut_9: z + [ 3.529411764705882 y ^2 ] >= 1150.588235294118
Bounds
 z = 780
 y = 10.2469507659596
End
